N = 8;
H = 6;
T = 2;

avail = array3d(1..N, 1..H, 1..T, [9, 2, 7, 8, 4, 9, 8, 8, 4, 6, 6, 1, 0, 1, 9, 6, 7, 4, 9, 9, 8, 9, 0, 3, 6, 8, 8, 4, 1, 9, 10, 2, 7, 8, 2, 3, 1, 4, 8, 3, 7, 1, 0, 3, 9, 3, 8, 7, 6, 0, 9, 0, 4, 5, 0, 7, 0, 6, 1, 3, 5, 7, 1, 10, 6, 9, 7, 0, 2, 5, 3, 10, 7, 9, 3, 0, 5, 4, 8, 6, 0, 8, 4, 6, 4, 6, 1, 0, 0, 2, 0, 6, 4, 4, 2, 8]);

r = array2d(1..H, 1..T, [3, 1, 2, 1, 1, 0, 1, 2, 3, 1, 1, 2]);
